p cnf 15 42
15 -14 5 0
15 -12 -11 0
15 -12 4 0
15 11 8 0
15 10 -9 0
15 10 -6 0
-15 8 -1 0
15 3 -2 0
-14 12 3 0
-14 12 1 0
14 -11 9 0
-14 10 7 0
14 -9 -8 0
14 9 5 0
-14 -9 1 0
14 6 5 0
14 -4 -3 0
-13 11 -10 0
-13 11 4 0
13 10 4 0
12 11 5 0
12 11 -3 0
-12 -10 8 0
-12 7 5 0
12 -7 4 0
-12 5 2 0
12 -4 1 0
11 -9 -5 0
11 9 1 0
-11 -4 -3 0
-11 -3 1 0
-11 2 1 0
-10 5 2 0
-10 -4 -2 0
-10 3 -2 0
-10 3 2 0
-9 -7 -6 0
-9 6 3 0
8 -4 3 0
6 -5 1 0
-6 -4 -3 0
-4 3 2 0
